CMD:
./solvers/bin/cadical --plain --no-reduce -t 1600 ./data/cnfs//bc57sensorsp1/bc57sensorsp1.63.cnf

c --- [ banner ] -------------------------------------------------------------
c 
c CaDiCaL SAT Solver
c Copyright (c) 2016-2024
c A. Biere, M. Fleury, N. Froleyks, K. Fazekas, F. Pollitt, T. Faller
c JKU Linz, University of Freiburg, TU Wien
c 
c Version 2.1.3 5296d3d2a9bf48c154ab2acb5e44625776d821bf
c g++ (Gentoo 12.3.1_p20230526 p2) 12.3.1 20230526 -Wall -Wextra -O3 -DNDEBUG
c Sat Aug 9 07:26:21 PDT 2025 Linux cedar2.int.cedar.computecanada.ca 5.14.0-362.24.2.el9_3.x86_64 x86_64
c 
c --- [ limit ] --------------------------------------------------------------
c 
c setting time limit to 1600 seconds real time (due to '-t 1600')
c 
c --- [ parsing input ] ------------------------------------------------------
c 
c reading DIMACS file from './data/cnfs//bc57sensorsp1/bc57sensorsp1.63.cnf'
c opening file to read './data/cnfs//bc57sensorsp1/bc57sensorsp1.63.cnf'
c found 'p cnf 127736 360958' header
c parsed 360958 clauses in 0.06 seconds process time
c 
c --- [ options ] ------------------------------------------------------------
c 
c   --compact=false                (different from default 'true')
c   --decompose=false              (different from default 'true')
c   --deduplicate=false            (different from default 'true')
c   --elim=false                   (different from default 'true')
c   --probe=false                  (different from default 'true')
c   --reduce=false                 (different from default 'true')
c   --subsume=false                (different from default 'true')
c   --ternary=false                (different from default 'true')
c   --transred=false               (different from default 'true')
c   --vivify=false                 (different from default 'true')
c 
c --- [ solving ] ------------------------------------------------------------
c 
c time measured in process time since initialization
c 
c  seconds  reductions  redundant  irredundant
c         MB    restarts       trail       variables
c          level   conflicts       glue         remaining
c 
c *  0.06 59  0 0   0    0    0  0% 0 345883 90114 71%
c {  0.09 61  0 0   0    0    0  0% 0 345883 90114 71%
c i  0.17 61 145 0   1  113  107 56% 1 345883 90107 71%
c i  0.20 62 104 0  13  183  171 52% 2 345883 90099 71%
c i  0.20 62 104 0  14  184  171 52% 2 345883 90088 71%
c i  0.21 62 88 0  22  223  208 49% 2 345883 90082 71%
c i  0.33 62 59 0  70  410  379 48% 2 345883 90036 70%
c i  0.35 62 55 0  76  454  422 47% 2 345883 90015 70%
c i  0.35 62 54 0  76  457  424 47% 2 345883 90011 70%
c i  0.35 62 54 0  76  460  426 47% 2 345883 89860 70%
c i  0.35 62 54 0  76  462  427 47% 2 345883 89808 70%
c i  0.35 62 54 0  76  464  428 47% 2 345883 89789 70%
c i  0.35 62 54 0  76  465  428 47% 2 345883 89786 70%
c i  0.35 62 53 0  76  472  434 47% 2 345883 89679 70%
c i  0.39 62 48 0  89  594  547 46% 2 345883 89578 70%
c i  0.39 62 47 0  90  602  553 46% 2 345883 89499 70%
c i  0.39 62 47 0  90  603  553 46% 2 345883 89492 70%
c i  0.39 62 47 0  90  605  554 46% 2 345883 89404 70%
c i  0.39 62 47 0  90  607  555 46% 2 345883 89288 70%
c i  0.39 62 47 0  90  610  557 46% 2 345883 89201 70%
c 
c  seconds  reductions  redundant  irredundant
c         MB    restarts       trail       variables
c          level   conflicts       glue         remaining
c 
c i  0.43 62 46 0  98  640  584 46% 2 345883 89108 70%
c i  0.49 62 41 0 137  799  726 46% 3 345883 85435 67%
c i  0.52 62 40 0 150  848  771 46% 3 345883 85340 67%
c i  0.52 62 40 0 150  849  771 46% 3 345883 85305 67%
c i  0.52 62 40 0 150  850  771 46% 3 345883 85264 67%
c i  0.52 62 40 0 150  851  771 46% 3 345883 85186 67%
c i  0.52 62 40 0 150  852  771 46% 3 345883 85120 67%
c i  0.53 62 40 0 150  856  774 46% 3 345883 85090 67%
c i  0.55 62 38 0 154  959  870 47% 3 345883 85058 67%
c i  0.55 62 38 0 154  961  871 47% 3 345883 85027 67%
c }  0.56 62 37 0 156 1002  910 47% 3 345883 85027 67%
c [  0.56 62  0 0 156 1002  910  0% 0 345883 85027 67%
c O  0.58 62 293 0 156 1003  911 94% 2 345883 85027 67%
c i  0.79 62 132 0 156 1241 1076 78% 4 345883 84927 66%
c i  1.24 62 102 0 156 1569 1330 67% 4 345883 84881 66%
c i  1.33 62 96 0 156 1610 1348 67% 4 345883 84804 66%
c i  1.33 62 96 0 156 1611 1348 67% 4 345883 84752 66%
c i  1.34 62 96 0 156 1613 1349 67% 4 345883 37375 29%
c ]  1.34 62 95 0 156 1615 1349 67% 4 345883 37051 29%
c 0  1.34 62 95 0 156 1615 1349 67% 4 345883 37051 29%
c 
c --- [ result ] -------------------------------------------------------------
c 
s UNSATISFIABLE
c 
c --- [ run-time profiling ] -------------------------------------------------
c 
c process time taken by individual solving procedures
c (percentage relative to process time for solving)
c 
c         1.29   99.99% search
c         0.78   60.61% stable
c         0.48   36.92% unstable
c         0.06    4.43% parse
c         0.03    2.45% lucky
c         0.00    0.00% simplify
c   =================================
c         1.29   95.73% solve
c 
c last line shows process time for solving
c (percentage relative to total process time)
c 
c --- [ statistics ] ---------------------------------------------------------
c 
c chronological:               626        38.76 %  of conflicts
c conflicts:                  1615      1254.79    per second
c decisions:                  7124      5535.06    per second
c fixed:                     90685        70.99 %  of all variables
c learned:                    1550        95.98 %  per conflict
c learned_lits:              58675       100.00 %  learned literals
c minimized:                     0         0.00 %  learned literals
c shrunken:                  22907        39.04 %  learned literals
c minishrunken:              12160        20.72 %  learned literals
c otfs:                         11         0.68 %  of conflict
c propagations:           13004785        10.10 M  per second
c rephased:                      1      1615.00    interval
c restarts:                    156        10.35    interval
c stabilizing:                   1        37.96 %  of conflicts
c subsumed:                    167         0.05 %  of all clauses
c strengthened:                 11         0.00 %  of all clauses
c 
c seconds are measured in process time for solving
c 
c --- [ resources ] ----------------------------------------------------------
c 
c total process time since initialization:         1.34    seconds
c total real time since initialization:            1.35    seconds
c maximum resident set size of process:           60.05    MB
c 
c --- [ shutting down ] ------------------------------------------------------
c 
c exit 20
